nNurses = 67;
nHours = 26;
minHours = 7;
maxHours = 12;
maxConsec = 7;
maxPresence = 18;
demand = [30, 31, 30, 26, 25, 24, 26, 27, 22, 18, 23, 24, 19, 22, 24, 21, 16, 20, 15, 15, 11, 11, 16, 15, 11, 9];
